8
 0  3  5 48 48  8  8  5
 3  0  3 48 48  8  8  5
 5  3  0 72 72 48 48 24
48 48 74  0  0  6  6 12
48 48 74  0  0  6  6 12
 8  8 50  6  6  0  0  8
 8  8 50  6  6  0  0  8
 5  5 26 12 12  8  8  0
